NAME: iago03.tsp
COMMENT: 5 city problem (Kleinschmidt)
TYPE: TSP
DIMENSION: 5
EDGE_WEIGHT_FORMAT: LOWER_DIAG_ROW
EDGE_WEIGHT_SECTION
0 
10 0 
13 10 0 
16 13 10 0 
18 16 13 10 0 
31 18 16 13 10 0 
EOF